certificates/rado_a14_c232_N54.cnf
c Rad2 upper bound instance: x1 + 14*x2 - x3 = 232, interval [1,54]
p cnf 54 416
1 7 17 0
-1 -7 -17 0
1 18 21 0
-1 -18 -21 0
1 19 35 0
-1 -19 -35 0
1 20 49 0
-1 -20 -49 0
2 8 17 0
-2 -8 -17 0
2 18 22 0
-2 -18 -22 0
2 19 36 0
-2 -19 -36 0
2 20 50 0
-2 -20 -50 0
3 9 17 0
-3 -9 -17 0
3 18 23 0
-3 -18 -23 0
3 19 37 0
-3 -19 -37 0
3 20 51 0
-3 -20 -51 0
4 10 17 0
-4 -10 -17 0
4 18 24 0
-4 -18 -24 0
4 19 38 0
-4 -19 -38 0
4 20 52 0
-4 -20 -52 0
5 11 17 0
-5 -11 -17 0
5 18 25 0
-5 -18 -25 0
5 19 39 0
-5 -19 -39 0
5 20 53 0
-5 -20 -53 0
6 12 17 0
-6 -12 -17 0
6 18 26 0
-6 -18 -26 0
6 19 40 0
-6 -19 -40 0
6 20 54 0
-6 -20 -54 0
7 13 17 0
-7 -13 -17 0
7 18 27 0
-7 -18 -27 0
7 19 41 0
-7 -19 -41 0
8 14 17 0
-8 -14 -17 0
8 18 28 0
-8 -18 -28 0
8 19 42 0
-8 -19 -42 0
1 9 16 0
-1 -9 -16 0
9 15 17 0
-9 -15 -17 0
9 18 29 0
-9 -18 -29 0
9 19 43 0
-9 -19 -43 0
2 10 16 0
-2 -10 -16 0
10 16 17 0
-10 -16 -17 0
10 18 30 0
-10 -18 -30 0
10 19 44 0
-10 -19 -44 0
3 11 16 0
-3 -11 -16 0
11 17 0
-11 -17 0
11 18 31 0
-11 -18 -31 0
11 19 45 0
-11 -19 -45 0
4 12 16 0
-4 -12 -16 0
12 17 18 0
-12 -17 -18 0
12 18 32 0
-12 -18 -32 0
12 19 46 0
-12 -19 -46 0
5 13 16 0
-5 -13 -16 0
13 17 19 0
-13 -17 -19 0
13 18 33 0
-13 -18 -33 0
13 19 47 0
-13 -19 -47 0
6 14 16 0
-6 -14 -16 0
14 17 20 0
-14 -17 -20 0
14 18 34 0
-14 -18 -34 0
14 19 48 0
-14 -19 -48 0
7 15 16 0
-7 -15 -16 0
15 17 21 0
-15 -17 -21 0
15 18 35 0
-15 -18 -35 0
15 19 49 0
-15 -19 -49 0
8 16 0
-8 -16 0
16 17 22 0
-16 -17 -22 0
16 18 36 0
-16 -18 -36 0
16 19 50 0
-16 -19 -50 0
9 16 17 0
-9 -16 -17 0
17 23 0
-17 -23 0
17 18 37 0
-17 -18 -37 0
17 19 51 0
-17 -19 -51 0
10 16 18 0
-10 -16 -18 0
17 18 24 0
-17 -18 -24 0
18 38 0
-18 -38 0
18 19 52 0
-18 -19 -52 0
11 16 19 0
-11 -16 -19 0
17 19 25 0
-17 -19 -25 0
18 19 39 0
-18 -19 -39 0
19 53 0
-19 -53 0
12 16 20 0
-12 -16 -20 0
17 20 26 0
-17 -20 -26 0
18 20 40 0
-18 -20 -40 0
19 20 54 0
-19 -20 -54 0
13 16 21 0
-13 -16 -21 0
17 21 27 0
-17 -21 -27 0
18 21 41 0
-18 -21 -41 0
14 16 22 0
-14 -16 -22 0
17 22 28 0
-17 -22 -28 0
18 22 42 0
-18 -22 -42 0
1 15 23 0
-1 -15 -23 0
15 16 23 0
-15 -16 -23 0
17 23 29 0
-17 -23 -29 0
18 23 43 0
-18 -23 -43 0
2 15 24 0
-2 -15 -24 0
16 24 0
-16 -24 0
17 24 30 0
-17 -24 -30 0
18 24 44 0
-18 -24 -44 0
3 15 25 0
-3 -15 -25 0
16 17 25 0
-16 -17 -25 0
17 25 31 0
-17 -25 -31 0
18 25 45 0
-18 -25 -45 0
4 15 26 0
-4 -15 -26 0
16 18 26 0
-16 -18 -26 0
17 26 32 0
-17 -26 -32 0
18 26 46 0
-18 -26 -46 0
5 15 27 0
-5 -15 -27 0
16 19 27 0
-16 -19 -27 0
17 27 33 0
-17 -27 -33 0
18 27 47 0
-18 -27 -47 0
6 15 28 0
-6 -15 -28 0
16 20 28 0
-16 -20 -28 0
17 28 34 0
-17 -28 -34 0
18 28 48 0
-18 -28 -48 0
7 15 29 0
-7 -15 -29 0
16 21 29 0
-16 -21 -29 0
17 29 35 0
-17 -29 -35 0
18 29 49 0
-18 -29 -49 0
8 15 30 0
-8 -15 -30 0
16 22 30 0
-16 -22 -30 0
17 30 36 0
-17 -30 -36 0
18 30 50 0
-18 -30 -50 0
9 15 31 0
-9 -15 -31 0
16 23 31 0
-16 -23 -31 0
17 31 37 0
-17 -31 -37 0
18 31 51 0
-18 -31 -51 0
10 15 32 0
-10 -15 -32 0
16 24 32 0
-16 -24 -32 0
17 32 38 0
-17 -32 -38 0
18 32 52 0
-18 -32 -52 0
11 15 33 0
-11 -15 -33 0
16 25 33 0
-16 -25 -33 0
17 33 39 0
-17 -33 -39 0
18 33 53 0
-18 -33 -53 0
12 15 34 0
-12 -15 -34 0
16 26 34 0
-16 -26 -34 0
17 34 40 0
-17 -34 -40 0
18 34 54 0
-18 -34 -54 0
13 15 35 0
-13 -15 -35 0
16 27 35 0
-16 -27 -35 0
17 35 41 0
-17 -35 -41 0
14 15 36 0
-14 -15 -36 0
16 28 36 0
-16 -28 -36 0
17 36 42 0
-17 -36 -42 0
1 14 37 0
-1 -14 -37 0
15 37 0
-15 -37 0
16 29 37 0
-16 -29 -37 0
17 37 43 0
-17 -37 -43 0
2 14 38 0
-2 -14 -38 0
15 16 38 0
-15 -16 -38 0
16 30 38 0
-16 -30 -38 0
17 38 44 0
-17 -38 -44 0
3 14 39 0
-3 -14 -39 0
15 17 39 0
-15 -17 -39 0
16 31 39 0
-16 -31 -39 0
17 39 45 0
-17 -39 -45 0
4 14 40 0
-4 -14 -40 0
15 18 40 0
-15 -18 -40 0
16 32 40 0
-16 -32 -40 0
17 40 46 0
-17 -40 -46 0
5 14 41 0
-5 -14 -41 0
15 19 41 0
-15 -19 -41 0
16 33 41 0
-16 -33 -41 0
17 41 47 0
-17 -41 -47 0
6 14 42 0
-6 -14 -42 0
15 20 42 0
-15 -20 -42 0
16 34 42 0
-16 -34 -42 0
17 42 48 0
-17 -42 -48 0
7 14 43 0
-7 -14 -43 0
15 21 43 0
-15 -21 -43 0
16 35 43 0
-16 -35 -43 0
17 43 49 0
-17 -43 -49 0
8 14 44 0
-8 -14 -44 0
15 22 44 0
-15 -22 -44 0
16 36 44 0
-16 -36 -44 0
17 44 50 0
-17 -44 -50 0
9 14 45 0
-9 -14 -45 0
15 23 45 0
-15 -23 -45 0
16 37 45 0
-16 -37 -45 0
17 45 51 0
-17 -45 -51 0
10 14 46 0
-10 -14 -46 0
15 24 46 0
-15 -24 -46 0
16 38 46 0
-16 -38 -46 0
17 46 52 0
-17 -46 -52 0
11 14 47 0
-11 -14 -47 0
15 25 47 0
-15 -25 -47 0
16 39 47 0
-16 -39 -47 0
17 47 53 0
-17 -47 -53 0
12 14 48 0
-12 -14 -48 0
15 26 48 0
-15 -26 -48 0
16 40 48 0
-16 -40 -48 0
17 48 54 0
-17 -48 -54 0
13 14 49 0
-13 -14 -49 0
15 27 49 0
-15 -27 -49 0
16 41 49 0
-16 -41 -49 0
14 50 0
-14 -50 0
15 28 50 0
-15 -28 -50 0
16 42 50 0
-16 -42 -50 0
1 13 51 0
-1 -13 -51 0
14 15 51 0
-14 -15 -51 0
15 29 51 0
-15 -29 -51 0
16 43 51 0
-16 -43 -51 0
2 13 52 0
-2 -13 -52 0
14 16 52 0
-14 -16 -52 0
15 30 52 0
-15 -30 -52 0
16 44 52 0
-16 -44 -52 0
3 13 53 0
-3 -13 -53 0
14 17 53 0
-14 -17 -53 0
15 31 53 0
-15 -31 -53 0
16 45 53 0
-16 -45 -53 0
4 13 54 0
-4 -13 -54 0
14 18 54 0
-14 -18 -54 0
15 32 54 0
-15 -32 -54 0
16 46 54 0
-16 -46 -54 0
