certificates/rado_a14_c232_N54.drat
14 19 -54 0
-53 -54 0
50 -54 0
-54 0
-50 0
14 0
-6 -19 0
d -40 -6 -19 0
20 0
-17 0
11 0
23 0
48 0
44 0
-18 0
37 0
24 0
-47 0
-19 0
-12 0
-8 0
38 0
39 0
0
